RLT02
Position Depot: Random
Horizon for Depot: Large
Position of customers: Random
Distribution of the demand: Large
Width of time windows: Tight
Distribution of the service: Small

VEHICLE 
NUMBER 	 CAPACITY 
 14 	 	 365 
 
CUSTOMER
CUST NO. 	 XCOORD.  	 YCOORD. 	 DEMAND 	 READY TIME 	 DUE DATE 	 SERVICE TIME 
 0 	 	 461 	 	 851 	 	 0 	 	 0 	 	 3866 	 	 0 
  1 	 	 514 	 	 944 	 	 14 	 	 53 	 	 117 	 	 59 
  2 	 	 417 	 	 785 	 	 77 	 	 2868 	 	 2972 	 	 62 
  3 	 	 69 	 	 888 	 	 86 	 	 3650 	 	 3741 	 	 79 
  4 	 	 909 	 	 526 	 	 4 	 	 1276 	 	 1401 	 	 92 
  5 	 	 317 	 	 807 	 	 20 	 	 1820 	 	 1883 	 	 52 
  6 	 	 295 	 	 163 	 	 98 	 	 648 	 	 778 	 	 51 
  7 	 	 864 	 	 151 	 	 33 	 	 779 	 	 888 	 	 66 
  8 	 	 803 	 	 669 	 	 74 	 	 1937 	 	 2114 	 	 62 
  9 	 	 944 	 	 79 	 	 17 	 	 1140 	 	 1197 	 	 91 
  10 	 	 863 	 	 241 	 	 21 	 	 3097 	 	 3191 	 	 65 
  11 	 	 606 	 	 631 	 	 59 	 	 3740 	 	 3817 	 	 50 
  12 	 	 959 	 	 835 	 	 26 	 	 2253 	 	 2396 	 	 91 
  13 	 	 652 	 	 174 	 	 35 	 	 3304 	 	 3378 	 	 55 
  14 	 	 307 	 	 237 	 	 49 	 	 3319 	 	 3445 	 	 84 
  15 	 	 138 	 	 944 	 	 39 	 	 507 	 	 633 	 	 84 
  16 	 	 123 	 	 306 	 	 67 	 	 602 	 	 705 	 	 78 
  17 	 	 409 	 	 655 	 	 97 	 	 371 	 	 428 	 	 75 
  18 	 	 488 	 	 988 	 	 83 	 	 28 	 	 153 	 	 94 
  19 	 	 480 	 	 480 	 	 48 	 	 685 	 	 788 	 	 80 
  20 	 	 892 	 	 561 	 	 26 	 	 2032 	 	 2218 	 	 91 
  21 	 	 231 	 	 141 	 	 56 	 	 2810 	 	 2910 	 	 95 
  22 	 	 373 	 	 503 	 	 30 	 	 282 	 	 394 	 	 57 
  23 	 	 991 	 	 371 	 	 9 	 	 2819 	 	 2879 	 	 63 
  24 	 	 442 	 	 339 	 	 95 	 	 1584 	 	 1749 	 	 78 
  25 	 	 837 	 	 471 	 	 85 	 	 2357 	 	 2521 	 	 73 
  26 	 	 40 	 	 208 	 	 88 	 	 1021 	 	 1104 	 	 83 
  27 	 	 776 	 	 757 	 	 14 	 	 3147 	 	 3303 	 	 62 
  28 	 	 335 	 	 105 	 	 1 	 	 3506 	 	 3613 	 	 62 
  29 	 	 963 	 	 735 	 	 50 	 	 734 	 	 861 	 	 69 
  30 	 	 675 	 	 797 	 	 48 	 	 3659 	 	 3768 	 	 51 
  31 	 	 694 	 	 912 	 	 32 	 	 2382 	 	 2503 	 	 69 
  32 	 	 185 	 	 817 	 	 86 	 	 2828 	 	 2907 	 	 50 
  33 	 	 356 	 	 746 	 	 20 	 	 2749 	 	 2943 	 	 98 
  34 	 	 398 	 	 862 	 	 63 	 	 1825 	 	 1903 	 	 64 
  35 	 	 613 	 	 359 	 	 8 	 	 455 	 	 566 	 	 60 
  36 	 	 202 	 	 437 	 	 18 	 	 2985 	 	 3131 	 	 75 
  37 	 	 601 	 	 360 	 	 11 	 	 371 	 	 561 	 	 79 
  38 	 	 820 	 	 870 	 	 74 	 	 1386 	 	 1509 	 	 94 
  39 	 	 381 	 	 761 	 	 43 	 	 3714 	 	 3859 	 	 50 
  40 	 	 954 	 	 875 	 	 15 	 	 1520 	 	 1647 	 	 67 
  41 	 	 59 	 	 685 	 	 98 	 	 2009 	 	 2181 	 	 67 
  42 	 	 53 	 	 503 	 	 41 	 	 3337 	 	 3496 	 	 97 
  43 	 	 466 	 	 595 	 	 72 	 	 3352 	 	 3533 	 	 64 
  44 	 	 174 	 	 523 	 	 6 	 	 1584 	 	 1699 	 	 62 
  45 	 	 322 	 	 206 	 	 95 	 	 633 	 	 725 	 	 76 
  46 	 	 431 	 	 579 	 	 33 	 	 2444 	 	 2527 	 	 55 
  47 	 	 264 	 	 245 	 	 90 	 	 1046 	 	 1242 	 	 61 
  48 	 	 464 	 	 840 	 	 55 	 	 25 	 	 112 	 	 69 
  49 	 	 522 	 	 141 	 	 19 	 	 1655 	 	 1714 	 	 79 
  50 	 	 519 	 	 938 	 	 96 	 	 1938 	 	 2120 	 	 96 
  51 	 	 45 	 	 396 	 	 14 	 	 2760 	 	 2885 	 	 76 
  52 	 	 474 	 	 110 	 	 84 	 	 2100 	 	 2259 	 	 76 
  53 	 	 27 	 	 880 	 	 34 	 	 2427 	 	 2492 	 	 68 
  54 	 	 265 	 	 333 	 	 65 	 	 524 	 	 609 	 	 84 
  55 	 	 56 	 	 223 	 	 41 	 	 2999 	 	 3073 	 	 60 
  56 	 	 309 	 	 761 	 	 53 	 	 2085 	 	 2171 	 	 55 
  57 	 	 998 	 	 536 	 	 64 	 	 3636 	 	 3819 	 	 54 
  58 	 	 436 	 	 374 	 	 81 	 	 3350 	 	 3438 	 	 100 
  59 	 	 471 	 	 415 	 	 79 	 	 1281 	 	 1403 	 	 81 
  60 	 	 997 	 	 568 	 	 10 	 	 2128 	 	 2212 	 	 51 
  61 	 	 647 	 	 90 	 	 27 	 	 2421 	 	 2564 	 	 80 
  62 	 	 527 	 	 151 	 	 99 	 	 3459 	 	 3553 	 	 94 
  63 	 	 135 	 	 434 	 	 98 	 	 513 	 	 582 	 	 72 
  64 	 	 653 	 	 758 	 	 90 	 	 3210 	 	 3339 	 	 93 
  65 	 	 257 	 	 740 	 	 47 	 	 1450 	 	 1579 	 	 76 
  66 	 	 408 	 	 487 	 	 57 	 	 1441 	 	 1574 	 	 89 
  67 	 	 717 	 	 422 	 	 20 	 	 3231 	 	 3314 	 	 94 
  68 	 	 489 	 	 256 	 	 82 	 	 3623 	 	 3737 	 	 77 
  69 	 	 983 	 	 591 	 	 61 	 	 2448 	 	 2510 	 	 68 
  70 	 	 543 	 	 824 	 	 64 	 	 1323 	 	 1499 	 	 58 
  71 	 	 457 	 	 148 	 	 83 	 	 2762 	 	 2933 	 	 59 
  72 	 	 897 	 	 238 	 	 43 	 	 3161 	 	 3228 	 	 93 
  73 	 	 566 	 	 576 	 	 76 	 	 1448 	 	 1541 	 	 100 
  74 	 	 430 	 	 640 	 	 53 	 	 1186 	 	 1305 	 	 64 
  75 	 	 631 	 	 10 	 	 84 	 	 1894 	 	 2035 	 	 55 
  76 	 	 851 	 	 269 	 	 63 	 	 2871 	 	 3021 	 	 79 
  77 	 	 837 	 	 46 	 	 55 	 	 949 	 	 1123 	 	 83 
  78 	 	 153 	 	 329 	 	 19 	 	 769 	 	 916 	 	 57 
  79 	 	 113 	 	 803 	 	 42 	 	 503 	 	 673 	 	 90 
  80 	 	 533 	 	 818 	 	 58 	 	 3452 	 	 3636 	 	 59 
  81 	 	 963 	 	 505 	 	 20 	 	 3454 	 	 3519 	 	 62 
  82 	 	 721 	 	 408 	 	 43 	 	 2578 	 	 2694 	 	 81 
  83 	 	 296 	 	 37 	 	 56 	 	 809 	 	 913 	 	 51 
  84 	 	 971 	 	 589 	 	 41 	 	 1595 	 	 1719 	 	 65 
  85 	 	 307 	 	 846 	 	 56 	 	 1351 	 	 1514 	 	 70 
  86 	 	 843 	 	 697 	 	 96 	 	 1097 	 	 1177 	 	 93 
  87 	 	 380 	 	 34 	 	 37 	 	 732 	 	 932 	 	 56 
  88 	 	 617 	 	 834 	 	 94 	 	 1031 	 	 1085 	 	 66 
  89 	 	 981 	 	 987 	 	 43 	 	 439 	 	 591 	 	 79 
  90 	 	 301 	 	 559 	 	 36 	 	 1483 	 	 1569 	 	 81 
  91 	 	 59 	 	 106 	 	 49 	 	 3555 	 	 3718 	 	 70 
  92 	 	 911 	 	 7 	 	 60 	 	 2522 	 	 2632 	 	 58 
  93 	 	 321 	 	 153 	 	 27 	 	 1940 	 	 2033 	 	 68 
  94 	 	 352 	 	 224 	 	 83 	 	 3099 	 	 3202 	 	 89 
  95 	 	 970 	 	 62 	 	 78 	 	 1801 	 	 1921 	 	 92 
  96 	 	 693 	 	 474 	 	 60 	 	 1852 	 	 1995 	 	 77 
  97 	 	 433 	 	 69 	 	 29 	 	 1379 	 	 1443 	 	 70 
  98 	 	 106 	 	 684 	 	 50 	 	 2143 	 	 2320 	 	 71 
  99 	 	 145 	 	 927 	 	 26 	 	 239 	 	 357 	 	 81 
  100 	 	 905 	 	 498 	 	 60 	 	 1220 	 	 1389 	 	 84 
 